(set-info :smt-lib-version 2.6)
(set-info :category "crafted")
(set-logic QF_FFA)
(define-sort FF0 () (_ FiniteField 52435875175126190479447740508185965837690552500527637822603658699938581184513))
(declare-fun a () Bool)
(declare-fun f () Bool)
(declare-fun e () Bool)
(declare-fun d () Bool)
(declare-fun g () Bool)
(declare-fun c () Bool)
(declare-fun b () Bool)
(declare-fun h () Bool)
(declare-fun out () FF0)
(declare-fun _55 () FF0)
(declare-fun _27 () FF0)
(declare-fun _54 () FF0)
(declare-fun _20 () FF0)
(declare-fun _53 () FF0)
(declare-fun _7 () FF0)
(declare-fun _52 () FF0)
(declare-fun _33 () FF0)
(declare-fun _32 () FF0)
(declare-fun _51 () FF0)
(declare-fun _15 () FF0)
(declare-fun _50 () FF0)
(declare-fun _45 () FF0)
(declare-fun _49 () FF0)
(declare-fun _48 () FF0)
(declare-fun _1 () FF0)
(declare-fun _47 () FF0)
(declare-fun _46 () FF0)
(declare-fun _36 () FF0)
(declare-fun _4 () FF0)
(declare-fun _0 () FF0)
(declare-fun _8 () FF0)
(declare-fun _44 () FF0)
(declare-fun _41 () FF0)
(declare-fun _40 () FF0)
(declare-fun _43 () FF0)
(declare-fun _3 () FF0)
(declare-fun _6 () FF0)
(declare-fun _35 () FF0)
(declare-fun _10 () FF0)
(declare-fun _16 () FF0)
(declare-fun _26 () FF0)
(declare-fun _25 () FF0)
(declare-fun _24 () FF0)
(declare-fun _23 () FF0)
(declare-fun _21 () FF0)
(declare-fun _22 () FF0)
(declare-fun _19 () FF0)
(declare-fun _18 () FF0)
(declare-fun _5 () FF0)
(declare-fun _14 () FF0)
(declare-fun _13 () FF0)
(declare-fun _12 () FF0)
(declare-fun _2 () FF0)
(assert 
  (let ((let0 a))
  (let ((let1 f))
  (let ((let2 (= let1 let0)))
  (let ((let3 e))
  (let ((let4 d))
  (let ((let5 (= let4 let3)))
  (let ((let6 g))
  (let ((let7 c))
  (let ((let8 b))
  (let ((let9 (and let8 let7 let3 let6 let5)))
  (let ((let10 (= let9 let0)))
  (let ((let11 (or let4 let10 let1 let2)))
  (let ((let12 (and let8 let2)))
  (let ((let13 (or let10 let9 let12 let12 let5 let11 let11)))
  (let ((let14 h))
  (let ((let15 (not let14)))
  (let ((let16 (ite let14 let10 let5)))
  (let ((let17 (or let6 let15 let15)))
  (let ((let18 (ite let6 let14 let17)))
  (let ((let19 (and let13 let4 let18 let2)))
  (let ((let20 (=> let3 let0)))
  (let ((let21 (or let17 let20)))
  (let ((let22 (and let21 let8 let19 let19 let9 let16 let15 let11 let13)))
  (let ((let23 out))
  (let ((let24 (as ff1 FF0)))
  (let ((let25 (= let24 let23)))
  (let ((let26 (= let25 let22)))
  (let ((let27 (as ff0 FF0)))
  (let ((let28 (= let27 let23)))
  (let ((let29 (or let25 let28)))
  (let ((let30 (and let29 let26)))
  (let ((let31 _55))
  (let ((let32 _27))
  (let ((let33 _54))
  (let ((let34 (ff.mul let33 let32)))
  (let ((let35 (= let34 let31)))
  (let ((let36 _20))
  (let ((let37 _53))
  (let ((let38 (ff.mul let37 let36)))
  (let ((let39 (= let38 let33)))
  (let ((let40 (as ff52435875175126190479447740508185965837690552500527637822603658699938581184512 FF0)))
  (let ((let41 _7))
  (let ((let42 (ff.mul let41 let40)))
  (let ((let43 (ff.add let42 let24)))
  (let ((let44 _52))
  (let ((let45 (ff.mul let44 let43)))
  (let ((let46 (= let45 let37)))
  (let ((let47 _33))
  (let ((let48 _32))
  (let ((let49 (ff.add let48 let47)))
  (let ((let50 _51))
  (let ((let51 (ff.mul let50 let49)))
  (let ((let52 (= let51 let44)))
  (let ((let53 _15))
  (let ((let54 _50))
  (let ((let55 (ff.mul let54 let53)))
  (let ((let56 (= let55 let50)))
  (let ((let57 _45))
  (let ((let58 _49))
  (let ((let59 (ff.mul let58 let57)))
  (let ((let60 (= let59 let54)))
  (let ((let61 _48))
  (let ((let62 (ff.mul let61 let57)))
  (let ((let63 (= let62 let58)))
  (let ((let64 _1))
  (let ((let65 _47))
  (let ((let66 (ff.mul let65 let64)))
  (let ((let67 (= let66 let61)))
  (let ((let68 (ff.mul let65 let40)))
  (let ((let69 _46))
  (let ((let70 _36))
  (let ((let71 (ff.add let70 let69 let68)))
  (let ((let72 (ff.mul let70 let69)))
  (let ((let73 (= let72 let71)))
  (let ((let74 (ff.mul let69 let40)))
  (let ((let75 _4))
  (let ((let76 (ff.mul let75 let40)))
  (let ((let77 _0))
  (let ((let78 (ff.add let77 let76 let74 let24)))
  (let ((let79 (ff.add let76 let24)))
  (let ((let80 (ff.mul let79 let77)))
  (let ((let81 (= let80 let78)))
  (let ((let82 _8))
  (let ((let83 (ff.mul let82 let40)))
  (let ((let84 (ff.add let83 let24)))
  (let ((let85 _44))
  (let ((let86 (ff.mul let85 let84)))
  (let ((let87 (= let86 let57)))
  (let ((let88 _41))
  (let ((let89 _40))
  (let ((let90 (ff.add let89 let88)))
  (let ((let91 _43))
  (let ((let92 (ff.mul let91 let90)))
  (let ((let93 (= let92 let85)))
  (let ((let94 _3))
  (let ((let95 (ff.mul let32 let94)))
  (let ((let96 (= let95 let91)))
  (let ((let97 _6))
  (let ((let98 (ff.mul let97 let40)))
  (let ((let99 (ff.add let98 let24)))
  (let ((let100 (ff.mul let99 let70)))
  (let ((let101 (= let100 let88)))
  (let ((let102 (ff.mul let97 let41)))
  (let ((let103 (= let102 let89)))
  (let ((let104 (ff.mul let70 let40)))
  (let ((let105 _35))
  (let ((let106 (ff.add let42 let105 let104 let24)))
  (let ((let107 (ff.mul let105 let43)))
  (let ((let108 (= let107 let106)))
  (let ((let109 (ff.mul let105 let40)))
  (let ((let110 (ff.add let97 let42 let109 let24)))
  (let ((let111 (ff.mul let97 let43)))
  (let ((let112 (= let111 let110)))
  (let ((let113 _10))
  (let ((let114 (ff.mul let113 let40)))
  (let ((let115 (ff.add let114 let24)))
  (let ((let116 (ff.mul let43 let115)))
  (let ((let117 (= let116 let47)))
  (let ((let118 _16))
  (let ((let119 (ff.mul let118 let40)))
  (let ((let120 (ff.add let119 let24)))
  (let ((let121 (ff.mul let41 let120)))
  (let ((let122 (= let121 let48)))
  (let ((let123 (ff.mul let32 let40)))
  (let ((let124 _26))
  (let ((let125 (ff.add let36 let124 let123)))
  (let ((let126 (ff.mul let124 let36)))
  (let ((let127 (= let126 let125)))
  (let ((let128 (ff.mul let124 let40)))
  (let ((let129 _25))
  (let ((let130 (ff.add let36 let129 let128)))
  (let ((let131 (ff.mul let129 let36)))
  (let ((let132 (= let131 let130)))
  (let ((let133 (ff.mul let129 let40)))
  (let ((let134 _24))
  (let ((let135 (ff.add let114 let134 let133 let24)))
  (let ((let136 (ff.mul let134 let115)))
  (let ((let137 (= let136 let135)))
  (let ((let138 (ff.mul let134 let40)))
  (let ((let139 _23))
  (let ((let140 _21))
  (let ((let141 (ff.add let140 let139 let138)))
  (let ((let142 (ff.mul let139 let140)))
  (let ((let143 (= let142 let141)))
  (let ((let144 (ff.mul let139 let40)))
  (let ((let145 _22))
  (let ((let146 (ff.add let140 let145 let144)))
  (let ((let147 (ff.mul let145 let140)))
  (let ((let148 (= let147 let146)))
  (let ((let149 (ff.mul let145 let40)))
  (let ((let150 (ff.add let53 let119 let149 let24)))
  (let ((let151 (ff.mul let120 let53)))
  (let ((let152 (= let151 let150)))
  (let ((let153 (ff.mul let64 let84)))
  (let ((let154 (= let153 let140)))
  (let ((let155 (ff.mul let36 let40)))
  (let ((let156 _19))
  (let ((let157 (ff.add let83 let156 let155 let24)))
  (let ((let158 (ff.mul let156 let84)))
  (let ((let159 (= let158 let157)))
  (let ((let160 (ff.mul let156 let40)))
  (let ((let161 _18))
  (let ((let162 _5))
  (let ((let163 (ff.add let162 let161 let160)))
  (let ((let164 (ff.mul let161 let162)))
  (let ((let165 (= let164 let163)))
  (let ((let166 (ff.mul let161 let40)))
  (let ((let167 (ff.add let94 let119 let166 let24)))
  (let ((let168 (ff.mul let94 let120)))
  (let ((let169 (= let168 let167)))
  (let ((let170 (ff.mul let77 let40)))
  (let ((let171 (ff.add let170 let53)))
  (let ((let172 (ff.mul let171 let171)))
  (let ((let173 (= let172 let118)))
  (let ((let174 _14))
  (let ((let175 (ff.mul let174 let115)))
  (let ((let176 (= let175 let53)))
  (let ((let177 _13))
  (let ((let178 (ff.mul let177 let97)))
  (let ((let179 (= let178 let174)))
  (let ((let180 _12))
  (let ((let181 (ff.mul let180 let75)))
  (let ((let182 (= let181 let177)))
  (let ((let183 _2))
  (let ((let184 (ff.mul let64 let183)))
  (let ((let185 (= let184 let180)))
  (let ((let186 (ff.add let94 let76)))
  (let ((let187 (ff.mul let186 let186)))
  (let ((let188 (= let187 let113)))
  (let ((let189 (ff.add let170 let162)))
  (let ((let190 (ff.mul let189 let189)))
  (let ((let191 (= let190 let82)))
  (let ((let192 (ff.mul let41 let41)))
  (let ((let193 (= let192 let41)))
  (let ((let194 (ff.mul let97 let97)))
  (let ((let195 (= let194 let97)))
  (let ((let196 (ff.mul let162 let162)))
  (let ((let197 (= let196 let162)))
  (let ((let198 (ff.mul let75 let75)))
  (let ((let199 (= let198 let75)))
  (let ((let200 (ff.mul let94 let94)))
  (let ((let201 (= let200 let94)))
  (let ((let202 (ff.mul let183 let183)))
  (let ((let203 (= let202 let183)))
  (let ((let204 (ff.mul let64 let64)))
  (let ((let205 (= let204 let64)))
  (let ((let206 (ff.mul let77 let77)))
  (let ((let207 (= let206 let77)))
  (let ((let208 (and let207 let205 let203 let201 let199 let197 let195 let193 let191 let188 let185 let182 let179 let176 let173 let169 let165 let159 let154 let152 let148 let143 let137 let132 let127 let122 let117 let112 let108 let103 let101 let96 let93 let87 let81 let73 let67 let63 let60 let56 let52 let46 let39 let35)))
  (let ((let209 (ite let6 let24 let27)))
  (let ((let210 (= let97 let209)))
  (let ((let211 (ite let0 let24 let27)))
  (let ((let212 (= let77 let211)))
  (let ((let213 (ite let14 let24 let27)))
  (let ((let214 (= let41 let213)))
  (let ((let215 (ite let8 let24 let27)))
  (let ((let216 (= let64 let215)))
  (let ((let217 (ite let4 let24 let27)))
  (let ((let218 (= let94 let217)))
  (let ((let219 (ite let1 let24 let27)))
  (let ((let220 (= let162 let219)))
  (let ((let221 (ite let3 let24 let27)))
  (let ((let222 (= let75 let221)))
  (let ((let223 (ite let7 let24 let27)))
  (let ((let224 (= let183 let223)))
  (let ((let225 (and let224 let222 let220 let218 let216 let214 let212 let210)))
  (let ((let226 (and let225 let208)))
  (let ((let227 (=> let226 let30)))
  (let ((let228 (not let227)))
  let228
)))))))))))))))))))))))))))))))))))))))))))))))))))))))))))))))))))))))))))))))))))))))))))))))))))))))))))))))))))))))))))))))))))))))))))))))))))))))))))))))))))))))))))))))))))))))))))))))))))))))))))))))))))))))))))))))))))))
)
(check-sat)
